*MODEL, NAME=021_PRETENSION_MULTIPLE_ELEMENTS

*NODE, NSET=NALL
1,  -50.0, -25.0, -10.0
2,   50.0, -25.0, -10.0
3,  -50.0,   0.0, -10.0
4,   50.0,   0.0, -10.0
5,  -50.0,  25.0, -10.0
6,   50.0,  25.0, -10.0
7,  -50.0, -25.0,  10.0
8,   50.0, -25.0,  10.0
9,  -50.0,   0.0,  10.0
10,  50.0,   0.0,  10.0
11, -50.0,  25.0,  10.0
12,  50.0,  25.0,  10.0

*ELEMENT, TYPE=C3D8, ELSET=SOLID
1, 1, 2, 4, 3, 7, 8, 10, 9
2, 3, 4, 6, 5, 9, 10, 12, 11

*SURFACE, SFSET=CYLINDER_SURFACE
1, 1, 3
2, 1, 4
3, 1, 5
4, 1, 6
5, 2, 3
6, 2, 4
7, 2, 5
8, 2, 6

*PRETENSIONSECTION, NAME=PT1, SURFACE=CYLINDER_SURFACE, POSITION=MIDDLE
1.0, 0.0, 0.0

*MATERIAL, NAME=STEEL
*ELASTIC, TYPE=ISOTROPIC
210000.0, 0.3
*DENSITY
7.85e-9
*SOLIDSECTION, ELSET=SOLID, MATERIAL=STEEL

*NSET, NAME=FIXED
1, 3, 5, 7, 9, 11
*SUPPORT, SUPPORT_COLLECTOR=BC
FIXED, 0.0, 0.0, 0.0, NAN, NAN, NAN

*LOADCASE, TYPE=LINEARSTATIC, NAME=PRETENSION_LOAD
*PRETENSION, SECTION=PT1, ACTION=LOAD, CONTROL=DISPLACEMENT, VALUE=1.0
*SUPPORTS
BC
*CONSTRAINTMETHOD, TYPE=LAGRANGE
*CONSTRAINTSUMMARY
*END

*LOADCASE, TYPE=LINEARSTATIC, NAME=PRETENSION_LOCK
*PRETENSION, SECTION=PT1, ACTION=LOCK
*SUPPORTS
BC
*CONSTRAINTMETHOD, TYPE=LAGRANGE
*CONSTRAINTSUMMARY
*END
