**
** Heading +++++++++++++++++++++++++++++++++++++++++++++++++
**
*Heading
Hash: BZZZyUaH, Date: 08/14/2026, Unit system: MM_TON_S_C
**
** Nodes +++++++++++++++++++++++++++++++++++++++++++++++++++
**
*Node
1, -1.50000000E+001, -1.80000000E-015, 0.00000000E+000
2, 1.50000000E+001, 0.00000000E+000, 0.00000000E+000
3, 1.50000000E+001, 0.00000000E+000, 8.00000000E+001
4, -1.50000000E+001, -1.80000000E-015, 8.00000000E+001
5, -1.29825200E+001, -7.51359938E+000, 0.00000000E+000
6, -7.43188003E+000, -1.30294727E+001, 0.00000000E+000
7, -2.80000000E-015, -1.50000000E+001, 0.00000000E+000
8, 7.47277658E+000, -1.30060605E+001, 0.00000000E+000
9, 1.28870787E+001, -7.67614500E+000, 0.00000000E+000
10, 1.50000000E+001, 0.00000000E+000, 8.24000000E+000
11, 1.50000000E+001, 0.00000000E+000, 1.62400000E+001
12, 1.50000000E+001, 0.00000000E+000, 2.41600000E+001
13, 1.50000000E+001, 0.00000000E+000, 3.21600000E+001
14, 1.50000000E+001, 0.00000000E+000, 4.01600000E+001
15, 1.50000000E+001, 0.00000000E+000, 4.80800000E+001
16, 1.50000000E+001, 0.00000000E+000, 5.60800000E+001
17, 1.50000000E+001, 0.00000000E+000, 6.40800000E+001
18, 1.50000000E+001, 0.00000000E+000, 7.20800000E+001
19, -1.29350547E+001, -7.59502211E+000, 8.00000000E+001
20, -7.26756436E+000, -1.31218333E+001, 8.00000000E+001
21, 2.82726596E-001, -1.49973353E+001, 8.00000000E+001
22, 7.75696485E+000, -1.28385940E+001, 8.00000000E+001
23, 1.30989368E+001, -7.30875189E+000, 8.00000000E+001
24, -1.50000000E+001, -1.80000000E-015, 7.18400000E+001
25, -1.50000000E+001, -1.80000000E-015, 6.38400000E+001
26, -1.50000000E+001, -1.80000000E-015, 5.59200000E+001
27, -1.50000000E+001, -1.80000000E-015, 4.79200000E+001
28, -1.50000000E+001, -1.80000000E-015, 3.99200000E+001
29, -1.50000000E+001, -1.80000000E-015, 3.20000000E+001
30, -1.50000000E+001, -1.80000000E-015, 2.40000000E+001
31, -1.50000000E+001, -1.80000000E-015, 1.60000000E+001
32, -1.50000000E+001, -1.80000000E-015, 8.00000000E+000
33, 1.30989368E+001, 7.30875189E+000, 8.00000000E+001
34, 7.71659301E+000, 1.28628998E+001, 8.00000000E+001
35, 9.42471595E-002, 1.49997039E+001, 8.00000000E+001
36, -7.43188003E+000, 1.30294727E+001, 8.00000000E+001
37, -1.28870787E+001, 7.67614500E+000, 8.00000000E+001
38, 1.30060605E+001, 7.47277658E+000, 0.00000000E+000
39, 7.59502211E+000, 1.29350547E+001, 0.00000000E+000
40, -4.71238123E-002, 1.49999260E+001, 0.00000000E+000
41, -7.51359938E+000, 1.29825200E+001, 0.00000000E+000
42, -1.29111304E+001, 7.63562124E+000, 0.00000000E+000
43, -1.13916704E+001, -9.75857800E+000, 7.06777049E+000
44, 3.21174793E+000, -1.46521219E+001, 8.27411290E+000
45, 1.34956070E+001, -6.54741112E+000, 1.14518508E+001
46, 1.37791271E+001, -5.92753366E+000, 2.76892531E+001
47, 1.35202085E+001, -6.49645763E+000, 4.34736817E+001
48, 1.32716190E+001, -6.99028821E+000, 5.94803515E+001
49, -1.13675552E+001, -9.78665867E+000, 7.31398121E+001
50, -4.48015071E+000, -1.43153152E+001, 7.26325709E+001
51, 3.88858615E+000, -1.44871977E+001, 7.22797333E+001
52, 1.11356713E+001, -1.00497176E+001, 7.27894767E+001
53, -1.33967650E+001, -6.74734680E+000, 6.01747941E+001
54, -1.35305151E+001, -6.47496425E+000, 4.41435911E+001
55, -1.34171121E+001, -6.70679529E+000, 2.79047208E+001
56, -1.37332624E+001, -6.03303429E+000, 1.29688913E+001
57, -4.61499120E+000, -1.42724159E+001, 7.99489608E+000
58, 9.67254044E+000, -1.14648141E+001, 7.21012828E+000
59, 1.36564726E+001, -6.20489766E+000, 1.96720903E+001
60, 1.36238642E+001, -6.27617104E+000, 3.55307855E+001
61, 1.33972273E+001, -6.74642872E+000, 5.15211359E+001
62, 1.34869954E+001, -6.56513172E+000, 6.67344748E+001
63, -1.37523093E+001, -5.98948979E+000, 6.71580359E+001
64, -1.34150780E+001, -6.71086306E+000, 5.23418434E+001
65, -1.35018073E+001, -6.53461554E+000, 3.60052912E+001
66, -1.34630710E+001, -6.61405477E+000, 2.00308414E+001
67, 9.17195022E+000, -1.18690913E+001, 4.66758315E+001
68, -1.28684262E+000, -1.49446993E+001, 1.75644600E+001
69, 8.29902414E+000, -1.24950469E+001, 1.59632456E+001
70, 9.46513461E+000, -1.16366330E+001, 3.86194422E+001
71, -8.74514177E+000, -1.21869806E+001, 2.33477636E+001
72, -7.94689761E+000, -1.27219031E+001, 5.74434708E+001
73, -9.26284103E+000, -1.17982955E+001, 6.57774492E+001
74, -9.31126711E+000, -1.17601150E+001, 1.48940366E+001
75, -1.48046801E+000, -1.49267617E+001, 6.49733032E+001
76, 7.85307538E+000, -1.27800316E+001, 6.41496730E+001
77, -9.29250724E+000, -1.17749441E+001, 4.02101093E+001
78, -9.32050903E+000, -1.17527916E+001, 4.84664860E+001
79, 9.83188783E+000, -1.13284589E+001, 3.07601458E+001
80, -9.03679773E+000, -1.19723133E+001, 3.19636136E+001
81, 1.05697635E+001, -1.06433124E+001, 2.36422032E+001
82, 8.61155034E+000, -1.22817426E+001, 5.50001628E+001
83, -2.49692575E+000, -1.47907188E+001, 2.78256716E+001
84, 3.32588637E+000, -1.46266360E+001, 4.15508753E+001
85, 1.26932674E+000, -1.49461972E+001, 5.75128018E+001
86, 4.67581333E+000, -1.42526057E+001, 2.47085154E+001
87, 2.90488883E+000, -1.47160328E+001, 4.95708035E+001
88, 3.75892475E+000, -1.45213803E+001, 3.33505890E+001
89, -3.14111528E+000, -1.46674263E+001, 3.65204068E+001
90, -3.62829380E+000, -1.45545692E+001, 5.17493060E+001
91, -3.44590363E+000, -1.45988269E+001, 4.45756895E+001
92, 1.01371170E+001, 1.10561683E+001, 7.45432332E+001
93, 4.37293282E+000, 1.43484305E+001, 7.36749167E+001
94, -2.75012155E+000, 1.47457394E+001, 7.42308339E+001
95, -9.38167338E+000, 1.17040251E+001, 7.40981019E+001
96, -1.35638657E+001, 6.40480659E+000, 7.30604919E+001
97, 1.36238498E+001, 6.27620246E+000, 1.32385032E+001
98, 1.34613993E+001, 6.61745645E+000, 2.03080047E+001
99, 1.35243708E+001, 6.48778818E+000, 2.81671576E+001
100, 1.35149275E+001, 6.50743695E+000, 3.61196435E+001
101, 1.34956657E+001, 6.54729005E+000, 4.41163311E+001
102, 1.34655807E+001, 6.60894366E+000, 5.21650866E+001
103, 1.35308150E+001, 6.47433754E+000, 6.01817419E+001
104, 1.40249740E+001, 5.31978415E+000, 6.71176091E+001
105, 1.12602368E+001, 9.90994794E+000, 7.17863712E+000
106, -4.46777754E+000, 1.43191817E+001, 7.88021018E+000
107, -1.37681690E+001, 5.95294228E+000, 6.56364971E+001
108, -1.37389351E+001, 6.02010485E+000, 5.80122092E+001
109, -1.36898508E+001, 6.13090418E+000, 5.02749228E+001
110, -1.36615341E+001, 6.19374562E+000, 4.24478866E+001
111, -1.36578421E+001, 6.20188268E+000, 3.46259481E+001
112, -1.37294159E+001, 6.04178271E+000, 2.68752132E+001
113, -1.35159399E+001, 6.50533385E+000, 1.88006648E+001
114, -1.23301434E+001, 8.54210540E+000, 9.52057557E+000
115, 4.15429282E+000, 1.44132526E+001, 7.62645460E+000
116, 1.36831715E+001, 6.14579668E+000, 7.34544079E+001
117, 9.13789311E-001, 1.49721404E+001, 6.75604586E+001
118, -5.44158504E+000, 1.39781670E+001, 6.91047092E+001
119, -1.02633850E+001, 1.09390552E+001, 6.73018504E+001
120, 9.37061559E+000, 1.17128802E+001, 2.40782903E+001
121, 9.28472122E+000, 1.17810845E+001, 3.20792426E+001
122, 9.23777203E+000, 1.18179342E+001, 4.00427764E+001
123, 9.19266383E+000, 1.18530558E+001, 4.81397438E+001
124, 9.14511423E+000, 1.18897807E+001, 5.64587211E+001
125, 9.38340690E+000, 1.17026354E+001, 6.65133098E+001
126, -1.53855224E-001, 1.49992109E+001, 1.47732874E+001
127, -8.02949347E+000, 1.26699343E+001, 1.56822500E+001
128, 8.69814857E+000, 1.22205651E+001, 1.52945886E+001
129, -1.01187550E+001, 1.10729759E+001, 6.01605460E+001
130, -9.88878747E+000, 1.12788245E+001, 5.26917236E+001
131, -9.79432650E+000, 1.13609493E+001, 4.50090703E+001
132, -9.70189383E+000, 1.14399850E+001, 3.72226134E+001
133, -9.78254090E+000, 1.13710990E+001, 2.94655282E+001
134, -1.03568422E+001, 1.08506138E+001, 2.25101591E+001
135, -4.72237007E+000, 1.42372477E+001, 6.28121606E+001
136, 3.05876492E+000, 1.46848206E+001, 2.81443484E+001
137, 3.00422267E+000, 1.46960759E+001, 3.60138392E+001
138, 2.94474157E+000, 1.47081099E+001, 4.39141113E+001
139, 2.81849587E+000, 1.47328233E+001, 5.19178978E+001
140, 2.56975110E+000, 1.47782401E+001, 6.00169569E+001
141, -3.84903059E+000, 1.44977572E+001, 2.33021469E+001
142, -4.20634845E+000, 1.43981468E+001, 5.56119438E+001
143, -3.98445308E+000, 1.44611249E+001, 4.79856755E+001
144, -3.82406220E+000, 1.45043631E+001, 4.02052057E+001
145, -3.75231817E+000, 1.45230888E+001, 3.23206352E+001
146, 3.57116817E+000, 1.45686910E+001, 2.09216634E+001
147, 7.93492539E+000, -2.55866666E-002, 0.00000000E+000
148, 3.97498282E+000, 6.87127880E+000, 0.00000000E+000
149, -4.01572395E+000, 6.92218443E+000, 0.00000000E+000
150, -7.99484207E+000, 2.25598011E-003, 0.00000000E+000
151, -3.97745784E+000, -6.88899331E+000, 0.00000000E+000
152, 3.95056046E+000, -6.90348482E+000, 0.00000000E+000
153, -2.33731453E-002, 2.77087134E-003, 0.00000000E+000
154, 8.00876235E+000, 2.09252406E-002, 8.00000000E+001
155, 4.09101544E+000, 6.89242721E+000, 8.00000000E+001
156, -3.94079074E+000, 6.94649027E+000, 8.00000000E+001
157, -7.94616750E+000, 3.08166482E-003, 8.00000000E+001
158, -3.86263071E+000, -6.89700136E+000, 8.00000000E+001
159, 4.09917536E+000, -6.81996835E+000, 8.00000000E+001
160, 5.80131921E-002, 3.44968439E-002, 8.00000000E+001
161, -5.15628829E-001, -4.48046790E-001, 1.21530349E+001
162, 2.22861132E+000, -4.00380860E+000, 2.53413282E+001
163, -1.73776267E+000, 6.03765653E+000, 2.44860838E+001
164, -2.89402281E-001, 1.37029257E+000, 6.60778981E+001
165, -4.34167515E-001, 4.96434745E-001, 5.08094796E+001
166, -3.92787342E-001, -5.54261793E+000, 3.82541841E+001
167, 2.10560784E-001, 5.54907640E+000, 3.74823337E+001
168, -7.50246725E+000, 6.03215996E+000, 7.26403439E+001
**
** Elements ++++++++++++++++++++++++++++++++++++++++++++++++
**
*Element, Type=C3D4, Elset=Solid_part-1
1, 51, 164, 50, 160
2, 2, 10, 147, 9
3, 166, 87, 91, 84
4, 151, 153, 161, 152
5, 147, 10, 45, 9
6, 166, 70, 67, 84
7, 103, 164, 16, 17
8, 147, 10, 38, 105
9, 147, 10, 2, 38
10, 162, 69, 68, 161
11, 47, 70, 166, 60
12, 69, 162, 68, 86
13, 129, 164, 108, 165
14, 148, 161, 149, 153
15, 89, 88, 166, 84
16, 50, 21, 159, 158
17, 72, 165, 90, 78
18, 123, 138, 167, 165
19, 49, 50, 158, 20
20, 145, 137, 144, 167
21, 154, 160, 164, 52
22, 148, 147, 161, 153
23, 158, 19, 49, 20
24, 147, 148, 161, 97
25, 115, 126, 161, 128
26, 57, 7, 6, 151
27, 101, 123, 165, 102
28, 113, 31, 161, 30
29, 163, 126, 128, 161
30, 146, 120, 163, 128
31, 168, 118, 119, 95
32, 73, 53, 63, 164
33, 167, 138, 143, 165
34, 161, 148, 149, 115
35, 85, 164, 82, 165
36, 133, 132, 111, 167
37, 149, 42, 114, 41
38, 102, 124, 123, 165
39, 148, 115, 161, 128
40, 92, 116, 155, 125
41, 161, 115, 149, 106
42, 114, 32, 150, 161
43, 118, 119, 135, 164
44, 145, 167, 133, 163
45, 161, 43, 32, 150
46, 162, 68, 74, 161
47, 166, 167, 165, 14
48, 34, 33, 155, 92
49, 58, 161, 147, 152
50, 145, 132, 133, 167
51, 123, 165, 167, 101
52, 80, 55, 166, 162
53, 168, 119, 118, 164
54, 161, 151, 57, 43
55, 155, 93, 34, 92
56, 127, 106, 126, 161
57, 5, 151, 150, 43
58, 161, 43, 57, 74
59, 154, 52, 164, 18
60, 145, 136, 167, 163
61, 115, 106, 161, 126
62, 51, 52, 159, 22
63, 123, 101, 167, 122
64, 145, 141, 136, 163
65, 11, 161, 162, 98
66, 101, 167, 100, 14
67, 165, 91, 78, 166
68, 69, 59, 45, 161
69, 26, 64, 27, 165
70, 16, 164, 103, 165
71, 127, 163, 126, 141
72, 165, 167, 101, 14
73, 160, 164, 49, 157
74, 102, 165, 15, 16
75, 160, 157, 49, 158
76, 165, 28, 166, 54
77, 156, 160, 157, 164
78, 130, 165, 131, 143
79, 5, 43, 6, 151
80, 150, 151, 161, 43
81, 43, 161, 32, 56
82, 23, 154, 3, 18
83, 73, 75, 72, 164
84, 165, 47, 14, 15
85, 94, 156, 164, 155
86, 162, 99, 98, 163
87, 150, 32, 114, 42
88, 166, 88, 70, 84
89, 166, 77, 54, 65
90, 38, 148, 147, 105
91, 89, 91, 166, 77
92, 168, 94, 118, 95
93, 166, 162, 13, 60
94, 150, 32, 42, 1
95, 125, 164, 103, 104
96, 13, 14, 167, 166
97, 166, 91, 78, 77
98, 82, 165, 61, 67
99, 129, 142, 135, 164
100, 46, 162, 79, 60
101, 14, 13, 167, 100
102, 25, 53, 26, 164
103, 46, 81, 79, 162
104, 107, 108, 129, 164
105, 164, 24, 49, 157
106, 107, 164, 129, 119
107, 164, 18, 17, 104
108, 25, 108, 107, 164
109, 108, 130, 129, 165
110, 11, 98, 162, 12
111, 72, 53, 73, 164
112, 80, 77, 166, 65
113, 78, 54, 166, 77
114, 6, 43, 57, 151
115, 56, 31, 161, 32
116, 59, 81, 46, 162
117, 56, 43, 161, 74
118, 82, 164, 48, 165
119, 89, 77, 166, 80
120, 83, 86, 162, 88
121, 161, 151, 150, 153
122, 100, 167, 122, 121
123, 162, 59, 69, 161
124, 167, 165, 143, 131
125, 165, 64, 27, 54
126, 108, 109, 130, 165
127, 82, 165, 67, 87
128, 168, 118, 94, 164
129, 114, 106, 127, 161
130, 146, 120, 136, 163
131, 145, 137, 167, 136
132, 24, 63, 25, 164
133, 24, 164, 49, 63
134, 164, 155, 93, 94
135, 8, 152, 58, 9
136, 128, 120, 163, 98
137, 162, 161, 74, 66
138, 30, 66, 161, 162
139, 108, 164, 26, 165
140, 68, 161, 57, 74
141, 165, 15, 101, 102
142, 154, 116, 164, 155
143, 168, 156, 94, 95
144, 76, 164, 82, 85
145, 29, 162, 166, 55
146, 161, 150, 149, 153
147, 144, 132, 145, 167
148, 168, 94, 156, 164
149, 78, 91, 165, 90
150, 131, 144, 167, 132
151, 26, 109, 108, 165
152, 124, 139, 123, 165
153, 166, 91, 89, 84
154, 165, 110, 167, 28
155, 124, 164, 103, 125
156, 29, 55, 166, 65
157, 8, 152, 7, 44
158, 117, 164, 135, 140
159, 123, 122, 167, 138
160, 45, 161, 59, 11
161, 133, 141, 145, 163
162, 168, 24, 157, 96
163, 122, 167, 100, 101
164, 161, 66, 56, 74
165, 30, 162, 29, 55
166, 140, 164, 142, 165
167, 165, 167, 166, 28
168, 131, 132, 167, 110
169, 167, 137, 144, 138
170, 130, 142, 129, 165
171, 131, 110, 167, 165
172, 152, 161, 147, 153
173, 168, 157, 24, 164
174, 159, 21, 51, 22
175, 126, 163, 128, 146
176, 163, 113, 127, 161
177, 140, 142, 139, 165
178, 30, 162, 161, 163
179, 92, 33, 155, 116
180, 25, 107, 24, 164
181, 97, 147, 148, 105
182, 24, 19, 157, 4
183, 90, 165, 85, 87
184, 165, 47, 67, 166
185, 85, 165, 82, 87
186, 167, 131, 143, 144
187, 155, 160, 156, 164
188, 154, 155, 164, 160
189, 48, 164, 16, 165
190, 167, 144, 143, 138
191, 18, 164, 17, 62
192, 162, 66, 74, 71
193, 165, 47, 166, 14
194, 5, 32, 150, 1
195, 167, 121, 136, 137
196, 36, 95, 156, 37
197, 134, 163, 112, 113
198, 168, 107, 24, 96
199, 116, 154, 164, 18
200, 164, 51, 50, 75
201, 164, 155, 116, 125
202, 3, 33, 116, 154
203, 162, 66, 71, 55
204, 157, 19, 24, 49
205, 92, 125, 155, 93
206, 150, 161, 149, 114
207, 47, 61, 165, 67
208, 142, 164, 129, 165
209, 168, 24, 107, 164
210, 125, 164, 117, 140
211, 38, 39, 148, 105
212, 58, 152, 147, 9
213, 158, 20, 50, 21
214, 67, 70, 166, 47
215, 57, 44, 7, 151
216, 58, 152, 8, 44
217, 81, 86, 79, 162
218, 149, 106, 114, 161
219, 156, 95, 36, 94
220, 166, 83, 80, 162
221, 35, 93, 155, 94
222, 161, 11, 97, 98
223, 155, 156, 35, 94
224, 161, 44, 151, 152
225, 166, 55, 80, 65
226, 10, 161, 11, 97
227, 79, 88, 166, 162
228, 151, 44, 7, 152
229, 162, 71, 68, 83
230, 80, 83, 71, 162
231, 45, 161, 58, 69
232, 27, 28, 165, 54
233, 23, 154, 18, 52
234, 63, 53, 25, 164
235, 78, 54, 165, 166
236, 26, 165, 27, 109
237, 161, 10, 11, 45
238, 61, 47, 165, 15
239, 165, 91, 166, 87
240, 53, 64, 26, 165
241, 165, 166, 67, 87
242, 147, 97, 161, 10
243, 150, 32, 5, 43
244, 162, 163, 98, 161
245, 104, 164, 103, 17
246, 97, 105, 148, 128
247, 167, 121, 100, 99
248, 167, 137, 122, 121
249, 11, 12, 162, 59
250, 162, 167, 99, 163
251, 164, 94, 93, 117
252, 128, 163, 161, 98
253, 13, 167, 100, 99
254, 27, 110, 165, 28
255, 117, 118, 135, 164
256, 162, 86, 79, 88
257, 168, 119, 107, 96
258, 166, 88, 83, 162
259, 168, 107, 119, 164
260, 124, 164, 125, 140
261, 122, 137, 167, 138
262, 115, 128, 148, 105
263, 57, 161, 68, 44
264, 103, 164, 124, 165
265, 79, 60, 166, 70
266, 147, 10, 161, 45
267, 79, 162, 166, 60
268, 130, 165, 109, 131
269, 114, 127, 113, 161
270, 164, 117, 93, 125
271, 68, 161, 69, 44
272, 58, 44, 161, 152
273, 13, 162, 46, 60
274, 24, 4, 157, 96
275, 161, 31, 56, 66
276, 69, 161, 58, 44
277, 89, 83, 166, 88
278, 136, 141, 146, 163
279, 126, 163, 146, 141
280, 11, 59, 162, 161
281, 162, 71, 74, 68
282, 164, 125, 116, 104
283, 167, 166, 162, 13
284, 133, 163, 112, 134
285, 116, 33, 155, 154
286, 168, 37, 95, 96
287, 102, 16, 103, 165
288, 48, 76, 62, 164
289, 102, 103, 124, 165
290, 53, 164, 72, 165
291, 160, 154, 159, 52
292, 124, 140, 139, 165
293, 168, 95, 37, 156
294, 160, 158, 49, 50
295, 49, 63, 164, 73
296, 94, 117, 164, 118
297, 18, 52, 164, 62
298, 165, 14, 101, 15
299, 168, 157, 37, 96
300, 16, 165, 15, 61
301, 168, 37, 157, 156
302, 164, 125, 93, 155
303, 164, 104, 116, 18
304, 160, 50, 49, 164
305, 168, 157, 164, 156
306, 67, 87, 166, 84
307, 163, 99, 98, 120
308, 165, 139, 123, 138
309, 136, 121, 167, 163
310, 30, 66, 162, 55
311, 78, 64, 165, 54
312, 28, 29, 166, 65
313, 72, 165, 78, 64
314, 52, 160, 164, 51
315, 58, 9, 147, 45
316, 166, 54, 28, 65
317, 80, 162, 71, 55
318, 26, 108, 25, 164
319, 168, 96, 95, 119
320, 166, 60, 13, 14
321, 14, 47, 166, 60
322, 4, 37, 157, 96
323, 48, 164, 82, 76
324, 166, 83, 89, 80
325, 85, 164, 75, 76
326, 48, 62, 17, 164
327, 3, 154, 116, 18
328, 167, 132, 111, 110
329, 165, 110, 27, 109
330, 72, 64, 53, 165
331, 90, 91, 165, 87
332, 161, 31, 114, 32
333, 111, 29, 167, 28
334, 167, 29, 166, 28
335, 159, 52, 23, 22
336, 162, 86, 69, 81
337, 142, 165, 130, 143
338, 159, 51, 160, 52
339, 124, 164, 140, 165
340, 162, 12, 98, 99
341, 26, 164, 53, 165
342, 163, 99, 120, 121
343, 163, 120, 136, 121
344, 52, 51, 164, 76
345, 148, 149, 115, 40
346, 115, 39, 148, 40
347, 16, 61, 48, 165
348, 114, 106, 149, 41
349, 79, 70, 166, 88
350, 52, 76, 164, 62
351, 129, 164, 135, 119
352, 127, 141, 134, 163
353, 149, 106, 40, 41
354, 139, 165, 142, 143
355, 72, 75, 85, 164
356, 72, 85, 90, 165
357, 133, 163, 134, 141
358, 161, 44, 57, 151
359, 12, 59, 46, 162
360, 50, 158, 159, 160
361, 50, 160, 159, 51
362, 113, 163, 127, 134
363, 50, 51, 159, 21
364, 167, 29, 162, 166
365, 148, 128, 161, 97
366, 126, 163, 127, 161
367, 58, 45, 147, 161
368, 34, 93, 155, 35
369, 161, 97, 128, 98
370, 35, 94, 156, 36
371, 138, 143, 165, 139
372, 163, 121, 167, 99
373, 48, 61, 82, 165
374, 167, 110, 111, 28
375, 162, 83, 68, 86
376, 72, 164, 85, 165
377, 13, 12, 162, 99
378, 148, 39, 115, 105
379, 12, 13, 162, 46
380, 162, 81, 69, 59
381, 158, 19, 157, 49
382, 75, 164, 51, 76
383, 105, 97, 147, 10
384, 159, 154, 23, 52
385, 29, 30, 112, 163
386, 29, 162, 30, 163
387, 161, 163, 113, 30
388, 49, 164, 50, 73
389, 113, 163, 112, 30
390, 167, 162, 99, 13
391, 135, 142, 140, 164
392, 112, 163, 111, 29
393, 167, 163, 162, 29
394, 50, 75, 73, 164
395, 133, 167, 111, 163
396, 111, 112, 133, 163
397, 165, 110, 109, 131
398, 111, 163, 167, 29
399, 30, 31, 161, 66
400, 16, 164, 48, 17
401, 149, 106, 115, 40
402, 114, 42, 149, 150
403, 113, 31, 114, 161
**
** Node sets +++++++++++++++++++++++++++++++++++++++++++++++
**
*Nset, Nset=bottom
3, 4, 19, 20, 21, 22, 23, 33, 34, 35, 36, 37, 154, 155, 156, 157, 
158, 159, 160
*Nset, Nset=top
1, 2, 5, 6, 7, 8, 9, 38, 39, 40, 41, 42, 147, 148, 149, 150, 
151, 152, 153
*Nset, Nset=Internal-1_Surface1
1, 2, 3, 4, 10, 11, 12, 13, 14, 15, 16, 17, 18, 24, 25, 26, 
27, 28, 29, 30, 31, 32, 33, 34, 35, 36, 37, 38, 39, 40, 41, 42, 
92, 93, 94, 95, 96, 97, 98, 99, 100, 101, 102, 103, 104, 105, 106, 107, 
108, 109, 110, 111, 112, 113, 114, 115, 116, 117, 118, 119, 120, 121, 122, 123, 
124, 125, 126, 127, 128, 129, 130, 131, 132, 133, 134, 135, 136, 137, 138, 139, 
140, 141, 142, 143, 144, 145, 146
**
** Element sets ++++++++++++++++++++++++++++++++++++++++++++
**
*Elset, Elset=Element_Set-1
1, 2, 3, 4, 5, 6, 7, 8, 9, 10, 11, 12, 13, 14, 15, 16, 
17, 18, 19, 20, 21, 22, 23, 24, 25, 26, 27, 28, 29, 30, 31, 32, 
33, 34, 35, 36, 37, 38, 39, 40, 41, 42, 43, 44, 45, 46, 47, 48, 
49, 50, 51, 52, 53, 54, 55, 56, 57, 58, 59, 60, 61, 62, 63, 64, 
65, 66, 67, 68, 69, 70, 71, 72, 73, 74, 75, 76, 77, 78, 79, 80, 
81, 82, 83, 84, 85, 86, 87, 88, 89, 90, 91, 92, 93, 94, 95, 96, 
97, 98, 99, 100, 101, 102, 103, 104, 105, 106, 107, 108, 109, 110, 111, 112, 
113, 114, 115, 116, 117, 118, 119, 120, 121, 122, 123, 124, 125, 126, 127, 128, 
129, 130, 131, 132, 133, 134, 135, 136, 137, 138, 139, 140, 141, 142, 143, 144, 
145, 146, 147, 148, 149, 150, 151, 152, 153, 154, 155, 156, 157, 158, 159, 160, 
161, 162, 163, 164, 165, 166, 167, 168, 169, 170, 171, 172, 173, 174, 175, 176, 
177, 178, 179, 180, 181, 182, 183, 184, 185, 186, 187, 188, 189, 190, 191, 192, 
193, 194, 195, 196, 197, 198, 199, 200, 201, 202, 203, 204, 205, 206, 207, 208, 
209, 210, 211, 212, 213, 214, 215, 216, 217, 218, 219, 220, 221, 222, 223, 224, 
225, 226, 227, 228, 229, 230, 231, 232, 233, 234, 235, 236, 237, 238, 239, 240, 
241, 242, 243, 244, 245, 246, 247, 248, 249, 250, 251, 252, 253, 254, 255, 256, 
257, 258, 259, 260, 261, 262, 263, 264, 265, 266, 267, 268, 269, 270, 271, 272, 
273, 274, 275, 276, 277, 278, 279, 280, 281, 282, 283, 284, 285, 286, 287, 288, 
289, 290, 291, 292, 293, 294, 295, 296, 297, 298, 299, 300, 301, 302, 303, 304, 
305, 306, 307, 308, 309, 310, 311, 312, 313, 314, 315, 316, 317, 318, 319, 320, 
321, 322, 323, 324, 325, 326, 327, 328, 329, 330, 331, 332, 333, 334, 335, 336, 
337, 338, 339, 340, 341, 342, 343, 344, 345, 346, 347, 348, 349, 350, 351, 352, 
353, 354, 355, 356, 357, 358, 359, 360, 361, 362, 363, 364, 365, 366, 367, 368, 
369, 370, 371, 372, 373, 374, 375, 376, 377, 378, 379, 380, 381, 382, 383, 384, 
385, 386, 387, 388, 389, 390, 391, 392, 393, 394, 395, 396, 397, 398, 399, 400, 
401, 402, 403
*Elset, Elset=Internal-1_Surface1_S4
7, 66, 71, 74, 78, 95, 106, 122, 155, 158, 163, 175, 197, 210, 226, 236, 
245, 253, 260, 268, 279, 284, 327, 337, 351, 354, 357, 362, 389, 392
*Elset, Elset=Internal-1_Surface1_S3
8, 9, 31, 37, 55, 87, 92, 94, 107, 141, 169, 186, 190, 195, 198, 219, 
222, 247, 248, 251, 257, 270, 282, 286, 298, 303, 307, 308, 319, 328, 329, 332, 
340, 342, 343, 353, 369, 374, 378, 397, 401
*Elset, Elset=Internal-1_Surface1_S1
20, 36, 38, 43, 50, 56, 64, 99, 104, 108, 109, 126, 129, 130, 147, 151, 
152, 161, 170, 177, 180, 202, 255, 269, 278, 287, 289, 292, 318, 352, 385, 391, 
396, 403
*Elset, Elset=Internal-1_Surface1_S2
25, 27, 28, 30, 40, 48, 61, 63, 101, 110, 131, 136, 150, 159, 168, 179, 
196, 205, 211, 221, 246, 254, 261, 262, 274, 296, 322, 333, 346, 348, 368, 370, 
371, 377, 383
**
** Surfaces ++++++++++++++++++++++++++++++++++++++++++++++++
**
*Surface, Name=Surface1, Type=Element
Internal-1_Surface1_S4, S4
Internal-1_Surface1_S3, S3
Internal-1_Surface1_S1, S1
Internal-1_Surface1_S2, S2
**
** Physical constants ++++++++++++++++++++++++++++++++++++++
**
**
** Coordinate systems ++++++++++++++++++++++++++++++++++++++
**
**
** Materials +++++++++++++++++++++++++++++++++++++++++++++++
**
*Material, Name=S355
*Density
7.8E-09
*Elastic
210000, 0.28
**
** Sections ++++++++++++++++++++++++++++++++++++++++++++++++
**
*Solid section, Elset=Element_Set-1, Material=S355
**
** Pre-tension sections ++++++++++++++++++++++++++++++++++++
**
**
** Constraints +++++++++++++++++++++++++++++++++++++++++++++
**
**
** Surface interactions ++++++++++++++++++++++++++++++++++++
**
**
** Contact pairs +++++++++++++++++++++++++++++++++++++++++++
**
**
** Amplitudes ++++++++++++++++++++++++++++++++++++++++++++++
**
**
** Initial conditions ++++++++++++++++++++++++++++++++++++++
**
**
** Steps +++++++++++++++++++++++++++++++++++++++++++++++++++
**
*SUPPORT, SUPPORT_COLLECTOR=BC
top, 0.0, 0.0, 0.0
bottom, 0.0, 0.0, 0.0

*PRETENSIONSECTION, NAME=PT1, SURFACE=SURFACE1, POSITION=MIDDLE, SNAP=0.1
0.0, 0.0, 1.0
*PRETENSION, SECTION=PT1, ACTION=LOAD, CONTROL=DISPLACEMENT, VALUE=1.0

*LOADCASE, TYPE=LINEARSTATIC, NAME=PRETENSION_TEST
*SUPPORTS
BC
*SOLVER, DEVICE=CPU, METHOD=DIRECT
*CONSTRAINTMETHOD, TYPE=LAGRANGE
*CONSTRAINTSUMMARY
*END
