*MODEL, NAME=034_C3D5_C3D8_CLOSURE
*NODE, NSET=NALL
1, -20.0, -20.0, -10.0
2,  20.0, -20.0, -10.0
3,  20.0,  20.0, -10.0
4, -20.0,  20.0, -10.0
5,   0.0,   0.0,  20.0
6, -20.0, -20.0, -30.0
7,  20.0, -20.0, -30.0
8,  20.0,  20.0, -30.0
9, -20.0,  20.0, -30.0
*ELEMENT, TYPE=C3D5, ELSET=SOLID
1, 1, 2, 3, 4, 5
*ELEMENT, TYPE=C3D8, ELSET=SOLID
2, 6, 7, 8, 9, 1, 2, 3, 4
*SURFACE, SFSET=PRETENSION_SURFACE
1, 1, 3
2, 1, 4
3, 1, 5
4, 1, 6
5, 2, 3
6, 2, 4
7, 2, 5
8, 2, 6
*PRETENSIONSECTION, NAME=PT1, SURFACE=PRETENSION_SURFACE, POSITION=MIDDLE
0.0, 0.0, 1.0
*PRETENSION, SECTION=PT1, ACTION=LOAD, CONTROL=DISPLACEMENT, VALUE=1.0
*MATERIAL, NAME=STEEL
*ELASTIC, TYPE=ISOTROPIC
210000.0, 0.3
*DENSITY
7.85e-9
*SOLIDSECTION, ELSET=SOLID, MATERIAL=STEEL
*NSET, NAME=FIXED
1, 2, 3, 4, 5, 6, 7, 8, 9
*SUPPORT, SUPPORT_COLLECTOR=BC
FIXED, 0.0, 0.0, 0.0, NAN, NAN, NAN
*CLOAD, LOAD_COLLECTOR=LOAD
FIXED, 0.0, 0.0, 0.0, 0.0, 0.0, 0.0
*LOADCASE, TYPE=LINEARSTATIC, NAME=C3D5_C3D8_CLOSURE_TEST
*SUPPORTS
BC
*LOADS
LOAD
*SOLVER, DEVICE=CPU, METHOD=DIRECT
*CONSTRAINTMETHOD, TYPE=LAGRANGE
*CONSTRAINTSUMMARY
*END
