*MODEL, NAME=019_C3D10_BASIC
*NODE, NSET=NALL
1, 0.0, 0.0, 0.0
2, 100.0, 0.0, 0.0
3, 0.0, 50.0, 0.0
4, 0.0, 0.0, 20.0
5, 50.0, 0.0, 0.0
6, 50.0, 25.0, 0.0
7, 0.0, 25.0, 0.0
8, 0.0, 0.0, 10.0
9, 50.0, 0.0, 10.0
10, 0.0, 25.0, 10.0
*ELEMENT, TYPE=C3D10, ELSET=SOLID
1, 1, 2, 3, 4, 5, 6, 7, 8, 9, 10
*SURFACE, SFSET=PRETENSION_SURFACE
1, 1, 1
2, 1, 2
3, 1, 3
4, 1, 4
*PRETENSIONSECTION, NAME=PT1, SURFACE=PRETENSION_SURFACE, POSITION=MIDDLE
1.0, 0.0, 0.0
*PRETENSION, SECTION=PT1, ACTION=LOAD, CONTROL=DISPLACEMENT, VALUE=1.0
*NSET, NAME=FIXED
1
*NSET, NAME=GUIDE_Y
2
*NSET, NAME=GUIDE_Z
3
*NSET, NAME=LOAD_NODE
4
*MATERIAL, NAME=STEEL
*ELASTIC, TYPE=ISOTROPIC
210000.0, 0.3
*DENSITY
7.85e-9
*SOLIDSECTION, ELSET=SOLID, MATERIAL=STEEL
*SUPPORT, SUPPORT_COLLECTOR=BC
FIXED, 0.0, 0.0, 0.0, NAN, NAN, NAN
GUIDE_Y, NAN, 0.0, 0.0, NAN, NAN, NAN
GUIDE_Z, NAN, NAN, 0.0, NAN, NAN, NAN
*CLOAD, LOAD_COLLECTOR=LOAD
LOAD_NODE, 1000.0, 0.0, 0.0, 0.0, 0.0, 0.0
*LOADCASE, TYPE=LINEARSTATIC, NAME=C3D10_BASIC_TEST
*SUPPORTS
BC
*LOADS
LOAD
*SOLVER, DEVICE=CPU, METHOD=DIRECT
*CONSTRAINTMETHOD, TYPE=LAGRANGE
*CONSTRAINTSUMMARY
*END
