*MODEL, NAME=029_C3D6_PRETENSION
*NODE, NSET=NALL
1,  40.0,  0.0, -10.0
2,   0.0, 40.0, -10.0
3,   0.0,  0.0, -10.0
4,  40.0,  0.0,  10.0
5,   0.0, 40.0,  10.0
6,   0.0,  0.0,  10.0
*ELEMENT, TYPE=C3D6, ELSET=SOLID
1, 1, 2, 3, 4, 5, 6
*SURFACE, SFSET=PRETENSION_SURFACE
1, 1, 1
2, 1, 2
3, 1, 3
4, 1, 4
5, 1, 5
*PRETENSIONSECTION, NAME=PT1, SURFACE=PRETENSION_SURFACE, POSITION=MIDDLE
0.0, 0.0, 1.0
*PRETENSION, SECTION=PT1, ACTION=LOAD, CONTROL=DISPLACEMENT, VALUE=1.0
*MATERIAL, NAME=STEEL
*ELASTIC, TYPE=ISOTROPIC
210000.0, 0.3
*DENSITY
7.85e-9
*SOLIDSECTION, ELSET=SOLID, MATERIAL=STEEL
*NSET, NAME=FIXED
1, 2, 3, 4, 5, 6
*SUPPORT, SUPPORT_COLLECTOR=BC
FIXED, 0.0, 0.0, 0.0, NAN, NAN, NAN
*CLOAD, LOAD_COLLECTOR=LOAD
FIXED, 0.0, 0.0, 0.0, 0.0, 0.0, 0.0
*LOADCASE, TYPE=LINEARSTATIC, NAME=C3D6_PRETENSION_TEST
*SUPPORTS
BC
*LOADS
LOAD
*SOLVER, DEVICE=CPU, METHOD=DIRECT
*CONSTRAINTMETHOD, TYPE=LAGRANGE
*CONSTRAINTSUMMARY
*END
