*MODEL, NAME=023_PRETENSION_FACE_ALIGNED

*NODE, NSET=NALL
1, -25.0, -25.0, 0.0
2,  25.0, -25.0, 0.0
3,  25.0,  25.0, 0.0
4, -25.0,  25.0, 0.0
5, -25.0, -25.0, 40.0
6,  25.0, -25.0, 40.0
7,  25.0,  25.0, 40.0
8, -25.0,  25.0, 40.0
9, -25.0, -25.0, 80.0
10, 25.0, -25.0, 80.0
11, 25.0, 25.0, 80.0
12, -25.0, 25.0, 80.0

*ELEMENT, TYPE=C3D8, ELSET=SOLID
1, 1, 2, 3, 4, 5, 6, 7, 8
2, 5, 6, 7, 8, 9, 10, 11, 12

*SURFACE, SFSET=CYLINDER_SURFACE
1, 1, 3
2, 1, 4
3, 1, 5
4, 1, 6
5, 2, 3
6, 2, 4
7, 2, 5
8, 2, 6

*PRETENSIONSECTION, NAME=PT1, SURFACE=CYLINDER_SURFACE, POSITION=MIDDLE
0.0, 0.0, 1.0

*MATERIAL, NAME=STEEL
*ELASTIC, TYPE=ISOTROPIC
210000.0, 0.3
*DENSITY
7.85e-9
*SOLIDSECTION, ELSET=SOLID, MATERIAL=STEEL

*NSET, NAME=FIXED
1, 2, 3, 4
*SUPPORT, SUPPORT_COLLECTOR=BC
FIXED, 0.0, 0.0, 0.0, NAN, NAN, NAN

*LOADCASE, TYPE=LINEARSTATIC, NAME=PRETENSION_LOAD
*PRETENSION, SECTION=PT1, ACTION=LOAD, CONTROL=DISPLACEMENT, VALUE=-1.0
*SUPPORTS
BC
*CONSTRAINTMETHOD, TYPE=LAGRANGE
*CONSTRAINTSUMMARY
*END

*LOADCASE, TYPE=LINEARSTATIC, NAME=PRETENSION_LOCK
*PRETENSION, SECTION=PT1, ACTION=LOCK
*SUPPORTS
BC
*CONSTRAINTMETHOD, TYPE=LAGRANGE
*CONSTRAINTSUMMARY
*END
