*MODEL, NAME=015_PRETENSION_AXIS_Y

*NODE, NSET=NALL
1, -50.0, -25.0, -10.0
2,  50.0, -25.0, -10.0
3,  50.0,  25.0, -10.0
4, -50.0,  25.0, -10.0
5, -50.0, -25.0,  10.0
6,  50.0, -25.0,  10.0
7,  50.0,  25.0,  10.0
8, -50.0,  25.0,  10.0

*ELEMENT, TYPE=C3D8, ELSET=SOLID
1, 1, 2, 3, 4, 5, 6, 7, 8

*SURFACE, SFSET=CYLINDER_SURFACE
1, 1, 3
2, 1, 4
3, 1, 5
4, 1, 6

*PRETENSIONSECTION, NAME=PT1, SURFACE=CYLINDER_SURFACE, POSITION=MIDDLE
0.0, 1.0, 0.0

*PRETENSION, SECTION=PT1, ACTION=LOAD, CONTROL=DISPLACEMENT, VALUE=1.0

*MATERIAL, NAME=STEEL
*ELASTIC, TYPE=ISOTROPIC
210000.0, 0.3

*DENSITY
7.85e-9

*SOLIDSECTION, ELSET=SOLID, MATERIAL=STEEL

*NSET, NAME=FIXED
1, 2, 3, 4, 5, 6, 7, 8

*SUPPORT, SUPPORT_COLLECTOR=BC
FIXED, 0.0, 0.0, 0.0, NAN, NAN, NAN

*CLOAD, LOAD_COLLECTOR=LOAD
FIXED, 0.0, 0.0, 0.0, 0.0, 0.0, 0.0

*LOADCASE, TYPE=LINEARSTATIC, NAME=PRETENSION_AXIS_Y_TEST
*SUPPORTS
BC
*LOADS
LOAD
*SOLVER, DEVICE=CPU, METHOD=DIRECT
*CONSTRAINTMETHOD, TYPE=LAGRANGE
*CONSTRAINTSUMMARY
*END
