*MODEL, NAME=031_C3D6_CUT_UNCUT_NEIGHBOR
*NODE, NSET=NALL
1,  20.0,  0.0, -10.0
2, -10.0, 40.0, -10.0
3, -10.0,  0.0, -10.0
4,  20.0,  0.0,  10.0
5, -10.0, 40.0,  10.0
6, -10.0,  0.0,  10.0
7, -20.0,  0.0, -10.0
8, -20.0,  0.0,  10.0
*ELEMENT, TYPE=C3D6, ELSET=SOLID
1, 1, 2, 3, 4, 5, 6
2, 3, 2, 7, 6, 5, 8
*SURFACE, SFSET=PRETENSION_SURFACE
1, 1, 1
2, 1, 2
3, 1, 3
4, 1, 4
5, 1, 5
6, 2, 1
7, 2, 2
8, 2, 3
9, 2, 4
10, 2, 5
*PRETENSIONSECTION, NAME=PT1, SURFACE=PRETENSION_SURFACE, POSITION=MIDDLE
1.0, 0.0, 0.0
*PRETENSION, SECTION=PT1, ACTION=LOAD, CONTROL=DISPLACEMENT, VALUE=1.0
*MATERIAL, NAME=STEEL
*ELASTIC, TYPE=ISOTROPIC
210000.0, 0.3
*DENSITY
7.85e-9
*SOLIDSECTION, ELSET=SOLID, MATERIAL=STEEL
*NSET, NAME=FIXED
1, 2, 3, 4, 5, 6, 7, 8
*SUPPORT, SUPPORT_COLLECTOR=BC
FIXED, 0.0, 0.0, 0.0, NAN, NAN, NAN
*CLOAD, LOAD_COLLECTOR=LOAD
FIXED, 0.0, 0.0, 0.0, 0.0, 0.0, 0.0
*LOADCASE, TYPE=LINEARSTATIC, NAME=C3D6_CUT_UNCUT_NEIGHBOR_TEST
*SUPPORTS
BC
*LOADS
LOAD
*SOLVER, DEVICE=CPU, METHOD=DIRECT
*CONSTRAINTMETHOD, TYPE=LAGRANGE
*CONSTRAINTSUMMARY
*END
