*MODEL, NAME=044_PRETENSION_LOADSTEPS
*NODE, NSET=NALL
1, -1, -1, 0
2,  1, -1, 0
3,  1,  1, 0
4, -1,  1, 0
5, -1, -1, 1
6,  1, -1, 1
7,  1,  1, 1
8, -1,  1, 1
9, -1, -1, 1
10, 1, -1, 1
11, 1,  1, 1
12,-1,  1, 1
13,-1, -1, 2
14, 1, -1, 2
15, 1,  1, 2
16,-1,  1, 2
*ELEMENT, TYPE=C3D8, ELSET=SOLID
1, 1, 2, 3, 4, 5, 6, 7, 8
2, 9, 10, 11, 12, 13, 14, 15, 16
*SURFACE, SFSET=CUT_FACE_A
1, 1, 2
*SURFACE, SFSET=CUT_FACE_B
2, 2, 1
*PRETENSIONSECTION, NAME=PT1, SURFACE_A=CUT_FACE_A, SURFACE_B=CUT_FACE_B
*MATERIAL, NAME=STEEL
*ELASTIC, TYPE=ISOTROPIC
210000.0, 0.3
*SOLIDSECTION, ELSET=SOLID, MATERIAL=STEEL
*NSET, NAME=FIXED
1, 2, 3, 4
*SUPPORT, SUPPORT_COLLECTOR=BC
FIXED, 0.0, 0.0, 0.0, NAN, NAN, NAN
*LOADCASE, TYPE=LINEARSTATIC, NAME=PRETENSION_SMALL
*SUPPORTS
BC
*PRETENSION, SECTION=PT1, ACTION=LOAD, CONTROL=DISPLACEMENT, VALUE=0.02
*SOLVER, DEVICE=CPU, METHOD=DIRECT
*CONSTRAINTMETHOD, TYPE=LAGRANGE
*END
*LOADCASE, TYPE=LINEARSTATIC, NAME=PRETENSION_LARGE
*SUPPORTS
BC
*PRETENSION, SECTION=PT1, ACTION=LOAD, CONTROL=DISPLACEMENT, VALUE=0.05
*SOLVER, DEVICE=CPU, METHOD=DIRECT
*CONSTRAINTMETHOD, TYPE=LAGRANGE
*END
*LOADCASE, TYPE=LINEARSTATIC, NAME=PRETENSION_LOCK
*SUPPORTS
BC
*PRETENSION, SECTION=PT1, ACTION=LOCK
*SOLVER, DEVICE=CPU, METHOD=DIRECT
*CONSTRAINTMETHOD, TYPE=LAGRANGE
*END
*LOADCASE, TYPE=LINEARSTATIC, NAME=PRETENSION_REMAINS_LOCKED
*SUPPORTS
BC
*SOLVER, DEVICE=CPU, METHOD=DIRECT
*CONSTRAINTMETHOD, TYPE=LAGRANGE
*END
