*MODEL, NAME=045_PRETENSION_FORCE_LOCK
*NODE, NSET=NALL
1, -1, -1, 0
2,  1, -1, 0
3,  1,  1, 0
4, -1,  1, 0
5, -1, -1, 1
6,  1, -1, 1
7,  1,  1, 1
8, -1,  1, 1
9, -1, -1, 1
10, 1, -1, 1
11, 1,  1, 1
12,-1,  1, 1
13,-1, -1, 2
14, 1, -1, 2
15, 1,  1, 2
16,-1,  1, 2
*ELEMENT, TYPE=C3D8, ELSET=SOLID
1, 1, 2, 3, 4, 5, 6, 7, 8
2, 9, 10, 11, 12, 13, 14, 15, 16
*SURFACE, SFSET=CUT_FACE_A
1, 1, 2
*SURFACE, SFSET=CUT_FACE_B
2, 2, 1
*PRETENSIONSECTION, NAME=PT1, SURFACE_A=CUT_FACE_A, SURFACE_B=CUT_FACE_B
*MATERIAL, NAME=STEEL
*ELASTIC, TYPE=ISOTROPIC
210000.0, 0.3
*SOLIDSECTION, ELSET=SOLID, MATERIAL=STEEL
*NSET, NAME=ENDS
1, 2, 3, 4, 13, 14, 15, 16
*SUPPORT, SUPPORT_COLLECTOR=BC_ENDS
ENDS, 0.0, 0.0, 0.0, NAN, NAN, NAN
*LOADCASE, TYPE=LINEARSTATIC, NAME=FORCE_PRETENSION
*SUPPORTS
BC_ENDS
*PRETENSION, SECTION=PT1, ACTION=LOAD, CONTROL=FORCE, VALUE=1000.0
*SOLVER, DEVICE=CPU, METHOD=DIRECT
*CONSTRAINTMETHOD, TYPE=LAGRANGE
*END
*LOADCASE, TYPE=LINEARSTATIC, NAME=LOCK_SOLVED_GAP
*SUPPORTS
BC_ENDS
*PRETENSION, SECTION=PT1, ACTION=LOCK
*SOLVER, DEVICE=CPU, METHOD=DIRECT
*CONSTRAINTMETHOD, TYPE=LAGRANGE
*END
*LOADCASE, TYPE=LINEARSTATIC, NAME=REMAIN_LOCKED
*SUPPORTS
BC_ENDS
*SOLVER, DEVICE=CPU, METHOD=DIRECT
*CONSTRAINTMETHOD, TYPE=LAGRANGE
*END
