*MODEL, NAME=025_C3D4_EDGE_ALIGNED
*NODE, NSET=NALL
1, 0.0, 0.0, 0.0
2, 100.0, 0.0, 0.0
3, 50.0, 50.0, 0.0
4, 50.0, 0.0, 20.0
*ELEMENT, TYPE=C3D4, ELSET=SOLID
1, 1, 2, 3, 4
*SURFACE, SFSET=PRETENSION_SURFACE
1, 1, 1
2, 1, 2
3, 1, 3
4, 1, 4
*PRETENSIONSECTION, NAME=PT1, SURFACE=PRETENSION_SURFACE, POSITION=MIDDLE, SNAP=0.02
1.0, 0.0, 0.0
*PRETENSION, SECTION=PT1, ACTION=LOAD, CONTROL=DISPLACEMENT, VALUE=1.0
*NSET, NAME=FIXED
1
*NSET, NAME=GUIDE_Y
2
*NSET, NAME=GUIDE_Z
3
*NSET, NAME=LOAD_NODE
4
*MATERIAL, NAME=STEEL
*ELASTIC, TYPE=ISOTROPIC
210000.0, 0.3
*DENSITY
7.85e-9
*SOLIDSECTION, ELSET=SOLID, MATERIAL=STEEL
*SUPPORT, SUPPORT_COLLECTOR=BC
FIXED, 0.0, 0.0, 0.0, NAN, NAN, NAN
GUIDE_Y, NAN, 0.0, 0.0, NAN, NAN, NAN
GUIDE_Z, NAN, NAN, 0.0, NAN, NAN, NAN
*CLOAD, LOAD_COLLECTOR=LOAD
LOAD_NODE, 1000.0, 0.0, 0.0, 0.0, 0.0, 0.0
*LOADCASE, TYPE=LINEARSTATIC, NAME=C3D4_EDGE_ALIGNED_TEST
*SUPPORTS
BC
*LOADS
LOAD
*SOLVER, DEVICE=CPU, METHOD=DIRECT
*CONSTRAINTMETHOD, TYPE=LAGRANGE
*CONSTRAINTSUMMARY
*END
