*MODEL, NAME=041_MIXED_HEX_BLOCK
*NODE, NSET=NALL
1, -20, -20, -20
2,   0, -20, -20
3,  20, -20, -20
4, -20,   0, -20
5,   0,   0, -20
6,  20,   0, -20
7, -20,  20, -20
8,   0,  20, -20
9,  20,  20, -20
10, -20, -20, 0
11,   0, -20, 0
12,  20, -20, 0
13, -20,   0, 0
14,   0,   0, 0
15,  20,   0, 0
16, -20,  20, 0
17,   0,  20, 0
18,  20,  20, 0
19, -20, -20, 20
20,   0, -20, 20
21,  20, -20, 20
22, -20,   0, 20
23,   0,   0, 20
24,  20,   0, 20
25, -20,  20, 20
26,   0,  20, 20
27,  20,  20, 20
28, -10, -20, -20
29,   0, -10, -20
30, -10,   0, -20
31, -20, -10, -20
32, -10, -20,   0
33,   0, -10,   0
34, -10,   0,   0
35, -20, -10,   0
36, -20, -20, -10
37,   0, -20, -10
38,   0,   0, -10
39, -20,   0, -10
40,  10,   0,   0
41,  20,  10,   0
42,  10,  20,   0
43,   0,  10,   0
44,  10,   0,  20
45,  20,  10,  20
46,  10,  20,  20
47,   0,  10,  20
48,   0,   0,  10
49,  20,   0,  10
50,  20,  20,  10
51,   0,  20,  10
*ELEMENT, TYPE=C3D20, ELSET=SOLID
1, 1, 2, 5, 4, 10, 11, 14, 13, 28, 29, 30, 31, 32, 33, 34, 35, 36, 37, 38, 39
*ELEMENT, TYPE=C3D8R, ELSET=SOLID
2, 2, 3, 6, 5, 11, 12, 15, 14
4, 5, 6, 9, 8, 14, 15, 18, 17
5, 10, 11, 14, 13, 19, 20, 23, 22
7, 13, 14, 17, 16, 22, 23, 26, 25
*ELEMENT, TYPE=C3D8, ELSET=SOLID
3, 4, 5, 8, 7, 13, 14, 17, 16
6, 11, 12, 15, 14, 20, 21, 24, 23
*ELEMENT, TYPE=C3D20R, ELSET=SOLID
8, 14, 15, 18, 17, 23, 24, 27, 26, 40, 41, 42, 43, 44, 45, 46, 47, 48, 49, 50, 51
*SURFACE, SFSET=PRETENSION_SURFACE
1, 1, 1
2, 1, 2
3, 1, 3
4, 1, 4
5, 1, 5
6, 1, 6
*PRETENSIONSECTION, NAME=PT1, SURFACE=PRETENSION_SURFACE, POSITION=MIDDLE
0.3, 0.2, 1.0
*PRETENSION, SECTION=PT1, ACTION=LOAD, CONTROL=DISPLACEMENT, VALUE=0.05
*MATERIAL, NAME=STEEL
*ELASTIC, TYPE=ISOTROPIC
210000.0, 0.3
*DENSITY
7.85e-9
*SOLIDSECTION, ELSET=SOLID, MATERIAL=STEEL
*NSET, NAME=FIXED
1, 2, 3, 4, 5, 6, 7, 8, 9
*SUPPORT, SUPPORT_COLLECTOR=BC
FIXED, 0.0, 0.0, 0.0, NAN, NAN, NAN
*CLOAD, LOAD_COLLECTOR=LOAD
FIXED, 0.0, 0.0, 0.0, 0.0, 0.0, 0.0
*LOADCASE, TYPE=LINEARSTATIC, NAME=MIXED_HEX_BLOCK_TEST
*SUPPORTS
BC
*LOADS
LOAD
*SOLVER, DEVICE=CPU, METHOD=DIRECT
*CONSTRAINTMETHOD, TYPE=LAGRANGE
*CONSTRAINTSUMMARY
*END
